\ENCODING=ISO-8859-1
\Problem name: 

Maximize
 obj1: x_0_1 + x_0_2
Subject To
 c1: x_0_1 - x_1_4 - x_1_3 - x_1_2  = 0
 c2: x_0_2 + x_1_2 - x_2_3 - x_2_5  = 0
 c3: x_1_3 + x_2_3 - x_3_4 - x_3_5  = 0
 c4: x_1_4 + x_3_4 - x_4_6  = 0
 c5: x_2_5 + x_3_5 - x_5_6  = 0
Bounds
 0 <= x_0_1 <= 8
 0 <= x_0_2 <= 18
 0 <= x_1_4 <= 12
 0 <= x_1_3 <= 4
 0 <= x_1_2 <= 10
 0 <= x_2_3 <= 5
 0 <= x_2_5 <= 10
 0 <= x_3_4 <= 7
 0 <= x_3_5 <= 14
 0 <= x_4_6 <= 20
 0 <= x_5_6 <= 6
End
